p cnf 102 1048
1 2 3 4 0
1 2 -3 5 0
1 -2 3 4 0
1 -2 -3 5 0
-1 2 3 5 0
-1 2 -3 4 0
-1 -2 3 5 0
-1 -2 -3 4 0
6 7 8 9 0
6 7 -8 10 0
6 -7 8 9 0
6 -7 -8 10 0
-6 7 8 10 0
-6 7 -8 9 0
-6 -7 8 10 0
-6 -7 -8 9 0
11 12 13 14 0
11 12 -13 15 0
11 -12 13 14 0
11 -12 -13 15 0
-11 12 13 15 0
-11 12 -13 14 0
-11 -12 13 15 0
-11 -12 -13 14 0
16 17 18 1 2 3 6 7 8 20 0
16 17 18 1 2 3 6 7 -8 20 0
16 17 18 1 2 3 6 -7 8 19 0
16 17 18 1 2 3 6 -7 -8 23 0
16 17 18 1 2 3 -6 7 8 22 0
16 17 18 1 2 3 -6 7 -8 21 0
16 17 18 1 2 3 -6 -7 8 23 0
16 17 18 1 2 3 -6 -7 -8 23 0
16 17 18 1 2 -3 6 7 8 20 0
16 17 18 1 2 -3 6 7 -8 24 0
16 17 18 1 2 -3 6 -7 8 23 0
16 17 18 1 2 -3 6 -7 -8 25 0
16 17 18 1 2 -3 -6 7 8 23 0
16 17 18 1 2 -3 -6 7 -8 23 0
16 17 18 1 2 -3 -6 -7 8 23 0
16 17 18 1 2 -3 -6 -7 -8 23 0
16 17 18 1 -2 3 6 7 8 26 0
16 17 18 1 -2 3 6 7 -8 19 0
16 17 18 1 -2 3 6 -7 8 21 0
16 17 18 1 -2 3 6 -7 -8 23 0
16 17 18 1 -2 3 -6 7 8 23 0
16 17 18 1 -2 3 -6 7 -8 23 0
16 17 18 1 -2 3 -6 -7 8 23 0
16 17 18 1 -2 3 -6 -7 -8 23 0
16 17 18 1 -2 -3 6 7 8 26 0
16 17 18 1 -2 -3 6 7 -8 23 0
16 17 18 1 -2 -3 6 -7 8 23 0
16 17 18 1 -2 -3 6 -7 -8 23 0
16 17 18 1 -2 -3 -6 7 8 23 0
16 17 18 1 -2 -3 -6 7 -8 23 0
16 17 18 1 -2 -3 -6 -7 8 23 0
16 17 18 1 -2 -3 -6 -7 -8 23 0
16 17 18 -1 2 3 6 7 8 26 0
16 17 18 -1 2 3 6 7 -8 39 0
16 17 18 -1 2 3 6 -7 8 23 0
16 17 18 -1 2 3 6 -7 -8 23 0
16 17 18 -1 2 3 -6 7 8 23 0
16 17 18 -1 2 3 -6 7 -8 23 0
16 17 18 -1 2 3 -6 -7 8 23 0
16 17 18 -1 2 3 -6 -7 -8 23 0
16 17 18 -1 2 -3 6 7 8 27 0
16 17 18 -1 2 -3 6 7 -8 37 0
16 17 18 -1 2 -3 6 -7 8 23 0
16 17 18 -1 2 -3 6 -7 -8 23 0
16 17 18 -1 2 -3 -6 7 8 23 0
16 17 18 -1 2 -3 -6 7 -8 23 0
16 17 18 -1 2 -3 -6 -7 8 23 0
16 17 18 -1 2 -3 -6 -7 -8 23 0
16 17 18 -1 -2 3 6 7 8 23 0
16 17 18 -1 -2 3 6 7 -8 23 0
16 17 18 -1 -2 3 6 -7 8 23 0
16 17 18 -1 -2 3 6 -7 -8 23 0
16 17 18 -1 -2 3 -6 7 8 23 0
16 17 18 -1 -2 3 -6 7 -8 23 0
16 17 18 -1 -2 3 -6 -7 8 23 0
16 17 18 -1 -2 3 -6 -7 -8 23 0
16 17 18 -1 -2 -3 6 7 8 23 0
16 17 18 -1 -2 -3 6 7 -8 23 0
16 17 18 -1 -2 -3 6 -7 8 23 0
16 17 18 -1 -2 -3 6 -7 -8 23 0
16 17 18 -1 -2 -3 -6 7 8 23 0
16 17 18 -1 -2 -3 -6 7 -8 23 0
16 17 18 -1 -2 -3 -6 -7 8 23 0
16 17 18 -1 -2 -3 -6 -7 -8 23 0
16 17 -18 1 2 3 6 7 8 23 0
16 17 -18 1 2 3 6 7 -8 23 0
16 17 -18 1 2 3 6 -7 8 19 0
16 17 -18 1 2 3 6 -7 -8 26 0
16 17 -18 1 2 3 -6 7 8 28 0
16 17 -18 1 2 3 -6 7 -8 27 0
16 17 -18 1 2 3 -6 -7 8 37 0
16 17 -18 1 2 3 -6 -7 -8 23 0
16 17 -18 1 2 -3 6 7 8 23 0
16 17 -18 1 2 -3 6 7 -8 40 0
16 17 -18 1 2 -3 6 -7 8 20 0
16 17 -18 1 2 -3 6 -7 -8 56 0
16 17 -18 1 2 -3 -6 7 8 23 0
16 17 -18 1 2 -3 -6 7 -8 23 0
16 17 -18 1 2 -3 -6 -7 8 23 0
16 17 -18 1 2 -3 -6 -7 -8 23 0
16 17 -18 1 -2 3 6 7 8 29 0
16 17 -18 1 -2 3 6 7 -8 19 0
16 17 -18 1 -2 3 6 -7 8 48 0
16 17 -18 1 -2 3 6 -7 -8 29 0
16 17 -18 1 -2 3 -6 7 8 23 0
16 17 -18 1 -2 3 -6 7 -8 23 0
16 17 -18 1 -2 3 -6 -7 8 23 0
16 17 -18 1 -2 3 -6 -7 -8 23 0
16 17 -18 1 -2 -3 6 7 8 29 0
16 17 -18 1 -2 -3 6 7 -8 40 0
16 17 -18 1 -2 -3 6 -7 8 30 0
16 17 -18 1 -2 -3 6 -7 -8 29 0
16 17 -18 1 -2 -3 -6 7 8 23 0
16 17 -18 1 -2 -3 -6 7 -8 23 0
16 17 -18 1 -2 -3 -6 -7 8 23 0
16 17 -18 1 -2 -3 -6 -7 -8 23 0
16 17 -18 -1 2 3 6 7 8 31 0
16 17 -18 -1 2 3 6 7 -8 29 0
16 17 -18 -1 2 3 6 -7 8 44 0
16 17 -18 -1 2 3 6 -7 -8 23 0
16 17 -18 -1 2 3 -6 7 8 23 0
16 17 -18 -1 2 3 -6 7 -8 23 0
16 17 -18 -1 2 3 -6 -7 8 23 0
16 17 -18 -1 2 3 -6 -7 -8 23 0
16 17 -18 -1 2 -3 6 7 8 27 0
16 17 -18 -1 2 -3 6 7 -8 41 0
16 17 -18 -1 2 -3 6 -7 8 23 0
16 17 -18 -1 2 -3 6 -7 -8 23 0
16 17 -18 -1 2 -3 -6 7 8 23 0
16 17 -18 -1 2 -3 -6 7 -8 23 0
16 17 -18 -1 2 -3 -6 -7 8 23 0
16 17 -18 -1 2 -3 -6 -7 -8 23 0
16 17 -18 -1 -2 3 6 7 8 24 0
16 17 -18 -1 -2 3 6 7 -8 23 0
16 17 -18 -1 -2 3 6 -7 8 23 0
16 17 -18 -1 -2 3 6 -7 -8 23 0
16 17 -18 -1 -2 3 -6 7 8 23 0
16 17 -18 -1 -2 3 -6 7 -8 23 0
16 17 -18 -1 -2 3 -6 -7 8 23 0
16 17 -18 -1 -2 3 -6 -7 -8 23 0
16 17 -18 -1 -2 -3 6 7 8 22 0
16 17 -18 -1 -2 -3 6 7 -8 23 0
16 17 -18 -1 -2 -3 6 -7 8 23 0
16 17 -18 -1 -2 -3 6 -7 -8 23 0
16 17 -18 -1 -2 -3 -6 7 8 23 0
16 17 -18 -1 -2 -3 -6 7 -8 23 0
16 17 -18 -1 -2 -3 -6 -7 8 23 0
16 17 -18 -1 -2 -3 -6 -7 -8 23 0
16 -17 18 1 2 3 6 7 8 23 0
16 -17 18 1 2 3 6 7 -8 23 0
16 -17 18 1 2 3 6 -7 8 45 0
16 -17 18 1 2 3 6 -7 -8 29 0
16 -17 18 1 2 3 -6 7 8 28 0
16 -17 18 1 2 3 -6 7 -8 21 0
16 -17 18 1 2 3 -6 -7 8 24 0
16 -17 18 1 2 3 -6 -7 -8 23 0
16 -17 18 1 2 -3 6 7 8 23 0
16 -17 18 1 2 -3 6 7 -8 23 0
16 -17 18 1 2 -3 6 -7 8 23 0
16 -17 18 1 2 -3 6 -7 -8 60 0
16 -17 18 1 2 -3 -6 7 8 29 0
16 -17 18 1 2 -3 -6 7 -8 31 0
16 -17 18 1 2 -3 -6 -7 8 23 0
16 -17 18 1 2 -3 -6 -7 -8 23 0
16 -17 18 1 -2 3 6 7 8 23 0
16 -17 18 1 -2 3 6 7 -8 39 0
16 -17 18 1 -2 3 6 -7 8 27 0
16 -17 18 1 -2 3 6 -7 -8 29 0
16 -17 18 1 -2 3 -6 7 8 48 0
16 -17 18 1 -2 3 -6 7 -8 37 0
16 -17 18 1 -2 3 -6 -7 8 23 0
16 -17 18 1 -2 3 -6 -7 -8 23 0
16 -17 18 1 -2 -3 6 7 8 23 0
16 -17 18 1 -2 -3 6 7 -8 45 0
16 -17 18 1 -2 -3 6 -7 8 32 0
16 -17 18 1 -2 -3 6 -7 -8 31 0
16 -17 18 1 -2 -3 -6 7 8 23 0
16 -17 18 1 -2 -3 -6 7 -8 46 0
16 -17 18 1 -2 -3 -6 -7 8 23 0
16 -17 18 1 -2 -3 -6 -7 -8 23 0
16 -17 18 -1 2 3 6 7 8 31 0
16 -17 18 -1 2 3 6 7 -8 53 0
16 -17 18 -1 2 3 6 -7 8 54 0
16 -17 18 -1 2 3 6 -7 -8 45 0
16 -17 18 -1 2 3 -6 7 8 23 0
16 -17 18 -1 2 3 -6 7 -8 23 0
16 -17 18 -1 2 3 -6 -7 8 23 0
16 -17 18 -1 2 3 -6 -7 -8 23 0
16 -17 18 -1 2 -3 6 7 8 47 0
16 -17 18 -1 2 -3 6 7 -8 59 0
16 -17 18 -1 2 -3 6 -7 8 23 0
16 -17 18 -1 2 -3 6 -7 -8 23 0
16 -17 18 -1 2 -3 -6 7 8 23 0
16 -17 18 -1 2 -3 -6 7 -8 23 0
16 -17 18 -1 2 -3 -6 -7 8 23 0
16 -17 18 -1 2 -3 -6 -7 -8 23 0
16 -17 18 -1 -2 3 6 7 8 33 0
16 -17 18 -1 -2 3 6 7 -8 35 0
16 -17 18 -1 -2 3 6 -7 8 23 0
16 -17 18 -1 -2 3 6 -7 -8 23 0
16 -17 18 -1 -2 3 -6 7 8 23 0
16 -17 18 -1 -2 3 -6 7 -8 23 0
16 -17 18 -1 -2 3 -6 -7 8 23 0
16 -17 18 -1 -2 3 -6 -7 -8 23 0
16 -17 18 -1 -2 -3 6 7 8 36 0
16 -17 18 -1 -2 -3 6 7 -8 23 0
16 -17 18 -1 -2 -3 6 -7 8 23 0
16 -17 18 -1 -2 -3 6 -7 -8 23 0
16 -17 18 -1 -2 -3 -6 7 8 23 0
16 -17 18 -1 -2 -3 -6 7 -8 23 0
16 -17 18 -1 -2 -3 -6 -7 8 23 0
16 -17 18 -1 -2 -3 -6 -7 -8 23 0
16 -17 -18 1 2 3 6 7 8 23 0
16 -17 -18 1 2 3 6 7 -8 23 0
16 -17 -18 1 2 3 6 -7 8 23 0
16 -17 -18 1 2 3 6 -7 -8 23 0
16 -17 -18 1 2 3 -6 7 8 23 0
16 -17 -18 1 2 3 -6 7 -8 21 0
16 -17 -18 1 2 3 -6 -7 8 59 0
16 -17 -18 1 2 3 -6 -7 -8 23 0
16 -17 -18 1 2 -3 6 7 8 23 0
16 -17 -18 1 2 -3 6 7 -8 23 0
16 -17 -18 1 2 -3 6 -7 8 23 0
16 -17 -18 1 2 -3 6 -7 -8 25 0
16 -17 -18 1 2 -3 -6 7 8 32 0
16 -17 -18 1 2 -3 -6 7 -8 33 0
16 -17 -18 1 2 -3 -6 -7 8 29 0
16 -17 -18 1 2 -3 -6 -7 -8 46 0
16 -17 -18 1 -2 3 6 7 8 23 0
16 -17 -18 1 -2 3 6 7 -8 39 0
16 -17 -18 1 -2 3 6 -7 8 23 0
16 -17 -18 1 -2 3 6 -7 -8 33 0
16 -17 -18 1 -2 3 -6 7 8 48 0
16 -17 -18 1 -2 3 -6 7 -8 24 0
16 -17 -18 1 -2 3 -6 -7 8 44 0
16 -17 -18 1 -2 3 -6 -7 -8 23 0
16 -17 -18 1 -2 -3 6 7 8 23 0
16 -17 -18 1 -2 -3 6 7 -8 45 0
16 -17 -18 1 -2 -3 6 -7 8 23 0
16 -17 -18 1 -2 -3 6 -7 -8 32 0
16 -17 -18 1 -2 -3 -6 7 8 35 0
16 -17 -18 1 -2 -3 -6 7 -8 23 0
16 -17 -18 1 -2 -3 -6 -7 8 31 0
16 -17 -18 1 -2 -3 -6 -7 -8 23 0
16 -17 -18 -1 2 3 6 7 8 23 0
16 -17 -18 -1 2 3 6 7 -8 39 0
16 -17 -18 -1 2 3 6 -7 8 51 0
16 -17 -18 -1 2 3 6 -7 -8 33 0
16 -17 -18 -1 2 3 -6 7 8 23 0
16 -17 -18 -1 2 3 -6 7 -8 23 0
16 -17 -18 -1 2 3 -6 -7 8 23 0
16 -17 -18 -1 2 3 -6 -7 -8 23 0
16 -17 -18 -1 2 -3 6 7 8 47 0
16 -17 -18 -1 2 -3 6 7 -8 23 0
16 -17 -18 -1 2 -3 6 -7 8 26 0
16 -17 -18 -1 2 -3 6 -7 -8 29 0
16 -17 -18 -1 2 -3 -6 7 8 23 0
16 -17 -18 -1 2 -3 -6 7 -8 23 0
16 -17 -18 -1 2 -3 -6 -7 8 23 0
16 -17 -18 -1 2 -3 -6 -7 -8 23 0
16 -17 -18 -1 -2 3 6 7 8 45 0
16 -17 -18 -1 -2 3 6 7 -8 48 0
16 -17 -18 -1 -2 3 6 -7 8 49 0
16 -17 -18 -1 -2 3 6 -7 -8 25 0
16 -17 -18 -1 -2 3 -6 7 8 31 0
16 -17 -18 -1 -2 3 -6 7 -8 23 0
16 -17 -18 -1 -2 3 -6 -7 8 23 0
16 -17 -18 -1 -2 3 -6 -7 -8 23 0
16 -17 -18 -1 -2 -3 6 7 8 23 0
16 -17 -18 -1 -2 -3 6 7 -8 33 0
16 -17 -18 -1 -2 -3 6 -7 8 23 0
16 -17 -18 -1 -2 -3 6 -7 -8 46 0
16 -17 -18 -1 -2 -3 -6 7 8 23 0
16 -17 -18 -1 -2 -3 -6 7 -8 23 0
16 -17 -18 -1 -2 -3 -6 -7 8 23 0
16 -17 -18 -1 -2 -3 -6 -7 -8 23 0
-16 17 18 1 2 3 6 7 8 23 0
-16 17 18 1 2 3 6 7 -8 23 0
-16 17 18 1 2 3 6 -7 8 23 0
-16 17 18 1 2 3 6 -7 -8 23 0
-16 17 18 1 2 3 -6 7 8 23 0
-16 17 18 1 2 3 -6 7 -8 21 0
-16 17 18 1 2 3 -6 -7 8 23 0
-16 17 18 1 2 3 -6 -7 -8 45 0
-16 17 18 1 2 -3 6 7 8 23 0
-16 17 18 1 2 -3 6 7 -8 23 0
-16 17 18 1 2 -3 6 -7 8 23 0
-16 17 18 1 2 -3 6 -7 -8 23 0
-16 17 18 1 2 -3 -6 7 8 31 0
-16 17 18 1 2 -3 -6 7 -8 30 0
-16 17 18 1 2 -3 -6 -7 8 33 0
-16 17 18 1 2 -3 -6 -7 -8 22 0
-16 17 18 1 -2 3 6 7 8 23 0
-16 17 18 1 -2 3 6 7 -8 23 0
-16 17 18 1 -2 3 6 -7 8 21 0
-16 17 18 1 -2 3 6 -7 -8 23 0
-16 17 18 1 -2 3 -6 7 8 27 0
-16 17 18 1 -2 3 -6 7 -8 41 0
-16 17 18 1 -2 3 -6 -7 8 51 0
-16 17 18 1 -2 3 -6 -7 -8 23 0
-16 17 18 1 -2 -3 6 7 8 23 0
-16 17 18 1 -2 -3 6 7 -8 23 0
-16 17 18 1 -2 -3 6 -7 8 23 0
-16 17 18 1 -2 -3 6 -7 -8 23 0
-16 17 18 1 -2 -3 -6 7 8 21 0
-16 17 18 1 -2 -3 -6 7 -8 52 0
-16 17 18 1 -2 -3 -6 -7 8 30 0
-16 17 18 1 -2 -3 -6 -7 -8 23 0
-16 17 18 -1 2 3 6 7 8 23 0
-16 17 18 -1 2 3 6 7 -8 23 0
-16 17 18 -1 2 3 6 -7 8 34 0
-16 17 18 -1 2 3 6 -7 -8 24 0
-16 17 18 -1 2 3 -6 7 8 23 0
-16 17 18 -1 2 3 -6 7 -8 23 0
-16 17 18 -1 2 3 -6 -7 8 23 0
-16 17 18 -1 2 3 -6 -7 -8 23 0
-16 17 18 -1 2 -3 6 7 8 23 0
-16 17 18 -1 2 -3 6 7 -8 41 0
-16 17 18 -1 2 -3 6 -7 8 29 0
-16 17 18 -1 2 -3 6 -7 -8 26 0
-16 17 18 -1 2 -3 -6 7 8 33 0
-16 17 18 -1 2 -3 -6 7 -8 23 0
-16 17 18 -1 2 -3 -6 -7 8 23 0
-16 17 18 -1 2 -3 -6 -7 -8 23 0
-16 17 18 -1 -2 3 6 7 8 23 0
-16 17 18 -1 -2 3 6 7 -8 21 0
-16 17 18 -1 -2 3 6 -7 8 36 0
-16 17 18 -1 -2 3 6 -7 -8 56 0
-16 17 18 -1 -2 3 -6 7 8 31 0
-16 17 18 -1 -2 3 -6 7 -8 37 0
-16 17 18 -1 -2 3 -6 -7 8 23 0
-16 17 18 -1 -2 3 -6 -7 -8 23 0
-16 17 18 -1 -2 -3 6 7 8 22 0
-16 17 18 -1 -2 -3 6 7 -8 23 0
-16 17 18 -1 -2 -3 6 -7 8 23 0
-16 17 18 -1 -2 -3 6 -7 -8 23 0
-16 17 18 -1 -2 -3 -6 7 8 55 0
-16 17 18 -1 -2 -3 -6 7 -8 23 0
-16 17 18 -1 -2 -3 -6 -7 8 23 0
-16 17 18 -1 -2 -3 -6 -7 -8 23 0
-16 17 -18 1 2 3 6 7 8 23 0
-16 17 -18 1 2 3 6 7 -8 23 0
-16 17 -18 1 2 3 6 -7 8 23 0
-16 17 -18 1 2 3 6 -7 -8 23 0
-16 17 -18 1 2 3 -6 7 8 23 0
-16 17 -18 1 2 3 -6 7 -8 23 0
-16 17 -18 1 2 3 -6 -7 8 37 0
-16 17 -18 1 2 3 -6 -7 -8 53 0
-16 17 -18 1 2 -3 6 7 8 23 0
-16 17 -18 1 2 -3 6 7 -8 23 0
-16 17 -18 1 2 -3 6 -7 8 23 0
-16 17 -18 1 2 -3 6 -7 -8 23 0
-16 17 -18 1 2 -3 -6 7 8 23 0
-16 17 -18 1 2 -3 -6 7 -8 23 0
-16 17 -18 1 2 -3 -6 -7 8 23 0
-16 17 -18 1 2 -3 -6 -7 -8 23 0
-16 17 -18 1 -2 3 6 7 8 23 0
-16 17 -18 1 -2 3 6 7 -8 23 0
-16 17 -18 1 -2 3 6 -7 8 23 0
-16 17 -18 1 -2 3 6 -7 -8 23 0
-16 17 -18 1 -2 3 -6 7 8 23 0
-16 17 -18 1 -2 3 -6 7 -8 24 0
-16 17 -18 1 -2 3 -6 -7 8 51 0
-16 17 -18 1 -2 3 -6 -7 -8 41 0
-16 17 -18 1 -2 -3 6 7 8 23 0
-16 17 -18 1 -2 -3 6 7 -8 23 0
-16 17 -18 1 -2 -3 6 -7 8 23 0
-16 17 -18 1 -2 -3 6 -7 -8 23 0
-16 17 -18 1 -2 -3 -6 7 8 48 0
-16 17 -18 1 -2 -3 -6 7 -8 46 0
-16 17 -18 1 -2 -3 -6 -7 8 29 0
-16 17 -18 1 -2 -3 -6 -7 -8 21 0
-16 17 -18 -1 2 3 6 7 8 23 0
-16 17 -18 -1 2 3 6 7 -8 23 0
-16 17 -18 -1 2 3 6 -7 8 23 0
-16 17 -18 -1 2 3 6 -7 -8 23 0
-16 17 -18 -1 2 3 -6 7 8 33 0
-16 17 -18 -1 2 3 -6 7 -8 40 0
-16 17 -18 -1 2 3 -6 -7 8 35 0
-16 17 -18 -1 2 3 -6 -7 -8 29 0
-16 17 -18 -1 2 -3 6 7 8 23 0
-16 17 -18 -1 2 -3 6 7 -8 23 0
-16 17 -18 -1 2 -3 6 -7 8 23 0
-16 17 -18 -1 2 -3 6 -7 -8 23 0
-16 17 -18 -1 2 -3 -6 7 8 24 0
-16 17 -18 -1 2 -3 -6 7 -8 26 0
-16 17 -18 -1 2 -3 -6 -7 8 46 0
-16 17 -18 -1 2 -3 -6 -7 -8 23 0
-16 17 -18 -1 -2 3 6 7 8 23 0
-16 17 -18 -1 -2 3 6 7 -8 23 0
-16 17 -18 -1 -2 3 6 -7 8 46 0
-16 17 -18 -1 -2 3 6 -7 -8 60 0
-16 17 -18 -1 -2 3 -6 7 8 29 0
-16 17 -18 -1 -2 3 -6 7 -8 24 0
-16 17 -18 -1 -2 3 -6 -7 8 23 0
-16 17 -18 -1 -2 3 -6 -7 -8 23 0
-16 17 -18 -1 -2 -3 6 7 8 23 0
-16 17 -18 -1 -2 -3 6 7 -8 33 0
-16 17 -18 -1 -2 -3 6 -7 8 33 0
-16 17 -18 -1 -2 -3 6 -7 -8 49 0
-16 17 -18 -1 -2 -3 -6 7 8 43 0
-16 17 -18 -1 -2 -3 -6 7 -8 23 0
-16 17 -18 -1 -2 -3 -6 -7 8 23 0
-16 17 -18 -1 -2 -3 -6 -7 -8 23 0
-16 -17 18 1 2 3 6 7 8 23 0
-16 -17 18 1 2 3 6 7 -8 23 0
-16 -17 18 1 2 3 6 -7 8 23 0
-16 -17 18 1 2 3 6 -7 -8 23 0
-16 -17 18 1 2 3 -6 7 8 23 0
-16 -17 18 1 2 3 -6 7 -8 23 0
-16 -17 18 1 2 3 -6 -7 8 23 0
-16 -17 18 1 2 3 -6 -7 -8 45 0
-16 -17 18 1 2 -3 6 7 8 23 0
-16 -17 18 1 2 -3 6 7 -8 23 0
-16 -17 18 1 2 -3 6 -7 8 23 0
-16 -17 18 1 2 -3 6 -7 -8 23 0
-16 -17 18 1 2 -3 -6 7 8 23 0
-16 -17 18 1 2 -3 -6 7 -8 23 0
-16 -17 18 1 2 -3 -6 -7 8 29 0
-16 -17 18 1 2 -3 -6 -7 -8 49 0
-16 -17 18 1 -2 3 6 7 8 23 0
-16 -17 18 1 -2 3 6 7 -8 23 0
-16 -17 18 1 -2 3 6 -7 8 23 0
-16 -17 18 1 -2 3 6 -7 -8 23 0
-16 -17 18 1 -2 3 -6 7 8 23 0
-16 -17 18 1 -2 3 -6 7 -8 23 0
-16 -17 18 1 -2 3 -6 -7 8 51 0
-16 -17 18 1 -2 3 -6 -7 -8 59 0
-16 -17 18 1 -2 -3 6 7 8 23 0
-16 -17 18 1 -2 -3 6 7 -8 23 0
-16 -17 18 1 -2 -3 6 -7 8 23 0
-16 -17 18 1 -2 -3 6 -7 -8 23 0
-16 -17 18 1 -2 -3 -6 7 8 23 0
-16 -17 18 1 -2 -3 -6 7 -8 23 0
-16 -17 18 1 -2 -3 -6 -7 8 29 0
-16 -17 18 1 -2 -3 -6 -7 -8 42 0
-16 -17 18 -1 2 3 6 7 8 23 0
-16 -17 18 -1 2 3 6 7 -8 23 0
-16 -17 18 -1 2 3 6 -7 8 23 0
-16 -17 18 -1 2 3 6 -7 -8 23 0
-16 -17 18 -1 2 3 -6 7 8 33 0
-16 -17 18 -1 2 3 -6 7 -8 24 0
-16 -17 18 -1 2 3 -6 -7 8 27 0
-16 -17 18 -1 2 3 -6 -7 -8 29 0
-16 -17 18 -1 2 -3 6 7 8 23 0
-16 -17 18 -1 2 -3 6 7 -8 23 0
-16 -17 18 -1 2 -3 6 -7 8 23 0
-16 -17 18 -1 2 -3 6 -7 -8 23 0
-16 -17 18 -1 2 -3 -6 7 8 45 0
-16 -17 18 -1 2 -3 -6 7 -8 23 0
-16 -17 18 -1 2 -3 -6 -7 8 28 0
-16 -17 18 -1 2 -3 -6 -7 -8 31 0
-16 -17 18 -1 -2 3 6 7 8 23 0
-16 -17 18 -1 -2 3 6 7 -8 23 0
-16 -17 18 -1 -2 3 6 -7 8 23 0
-16 -17 18 -1 -2 3 6 -7 -8 25 0
-16 -17 18 -1 -2 3 -6 7 8 33 0
-16 -17 18 -1 -2 3 -6 7 -8 59 0
-16 -17 18 -1 -2 3 -6 -7 8 28 0
-16 -17 18 -1 -2 3 -6 -7 -8 29 0
-16 -17 18 -1 -2 -3 6 7 8 23 0
-16 -17 18 -1 -2 -3 6 7 -8 23 0
-16 -17 18 -1 -2 -3 6 -7 8 33 0
-16 -17 18 -1 -2 -3 6 -7 -8 33 0
-16 -17 18 -1 -2 -3 -6 7 8 50 0
-16 -17 18 -1 -2 -3 -6 7 -8 46 0
-16 -17 18 -1 -2 -3 -6 -7 8 31 0
-16 -17 18 -1 -2 -3 -6 -7 -8 23 0
-16 -17 -18 1 2 3 6 7 8 23 0
-16 -17 -18 1 2 3 6 7 -8 23 0
-16 -17 -18 1 2 3 6 -7 8 23 0
-16 -17 -18 1 2 3 6 -7 -8 23 0
-16 -17 -18 1 2 3 -6 7 8 23 0
-16 -17 -18 1 2 3 -6 7 -8 23 0
-16 -17 -18 1 2 3 -6 -7 8 23 0
-16 -17 -18 1 2 3 -6 -7 -8 39 0
-16 -17 -18 1 2 -3 6 7 8 23 0
-16 -17 -18 1 2 -3 6 7 -8 23 0
-16 -17 -18 1 2 -3 6 -7 8 23 0
-16 -17 -18 1 2 -3 6 -7 -8 23 0
-16 -17 -18 1 2 -3 -6 7 8 23 0
-16 -17 -18 1 2 -3 -6 7 -8 23 0
-16 -17 -18 1 2 -3 -6 -7 8 23 0
-16 -17 -18 1 2 -3 -6 -7 -8 28 0
-16 -17 -18 1 -2 3 6 7 8 23 0
-16 -17 -18 1 -2 3 6 7 -8 23 0
-16 -17 -18 1 -2 3 6 -7 8 23 0
-16 -17 -18 1 -2 3 6 -7 -8 23 0
-16 -17 -18 1 -2 3 -6 7 8 23 0
-16 -17 -18 1 -2 3 -6 7 -8 23 0
-16 -17 -18 1 -2 3 -6 -7 8 44 0
-16 -17 -18 1 -2 3 -6 -7 -8 24 0
-16 -17 -18 1 -2 -3 6 7 8 23 0
-16 -17 -18 1 -2 -3 6 7 -8 23 0
-16 -17 -18 1 -2 -3 6 -7 8 23 0
-16 -17 -18 1 -2 -3 6 -7 -8 23 0
-16 -17 -18 1 -2 -3 -6 7 8 23 0
-16 -17 -18 1 -2 -3 -6 7 -8 23 0
-16 -17 -18 1 -2 -3 -6 -7 8 23 0
-16 -17 -18 1 -2 -3 -6 -7 -8 21 0
-16 -17 -18 -1 2 3 6 7 8 23 0
-16 -17 -18 -1 2 3 6 7 -8 23 0
-16 -17 -18 -1 2 3 6 -7 8 23 0
-16 -17 -18 -1 2 3 6 -7 -8 23 0
-16 -17 -18 -1 2 3 -6 7 8 23 0
-16 -17 -18 -1 2 3 -6 7 -8 23 0
-16 -17 -18 -1 2 3 -6 -7 8 23 0
-16 -17 -18 -1 2 3 -6 -7 -8 33 0
-16 -17 -18 -1 2 -3 6 7 8 23 0
-16 -17 -18 -1 2 -3 6 7 -8 23 0
-16 -17 -18 -1 2 -3 6 -7 8 23 0
-16 -17 -18 -1 2 -3 6 -7 -8 23 0
-16 -17 -18 -1 2 -3 -6 7 8 23 0
-16 -17 -18 -1 2 -3 -6 7 -8 29 0
-16 -17 -18 -1 2 -3 -6 -7 8 33 0
-16 -17 -18 -1 2 -3 -6 -7 -8 38 0
-16 -17 -18 -1 -2 3 6 7 8 23 0
-16 -17 -18 -1 -2 3 6 7 -8 23 0
-16 -17 -18 -1 -2 3 6 -7 8 23 0
-16 -17 -18 -1 -2 3 6 -7 -8 23 0
-16 -17 -18 -1 -2 3 -6 7 8 23 0
-16 -17 -18 -1 -2 3 -6 7 -8 37 0
-16 -17 -18 -1 -2 3 -6 -7 8 36 0
-16 -17 -18 -1 -2 3 -6 -7 -8 26 0
-16 -17 -18 -1 -2 -3 6 7 8 23 0
-16 -17 -18 -1 -2 -3 6 7 -8 23 0
-16 -17 -18 -1 -2 -3 6 -7 8 23 0
-16 -17 -18 -1 -2 -3 6 -7 -8 46 0
-16 -17 -18 -1 -2 -3 -6 7 8 57 0
-16 -17 -18 -1 -2 -3 -6 7 -8 58 0
-16 -17 -18 -1 -2 -3 -6 -7 8 38 0
-16 -17 -18 -1 -2 -3 -6 -7 -8 20 0
61 62 63 11 12 13 16 17 18 65 0
61 62 63 11 12 13 16 17 -18 64 0
61 62 63 11 12 13 16 -17 18 67 0
61 62 63 11 12 13 16 -17 -18 68 0
61 62 63 11 12 13 -16 17 18 68 0
61 62 63 11 12 13 -16 17 -18 68 0
61 62 63 11 12 13 -16 -17 18 68 0
61 62 63 11 12 13 -16 -17 -18 68 0
61 62 63 11 12 -13 16 17 18 65 0
61 62 63 11 12 -13 16 17 -18 68 0
61 62 63 11 12 -13 16 -17 18 68 0
61 62 63 11 12 -13 16 -17 -18 68 0
61 62 63 11 12 -13 -16 17 18 68 0
61 62 63 11 12 -13 -16 17 -18 68 0
61 62 63 11 12 -13 -16 -17 18 68 0
61 62 63 11 12 -13 -16 -17 -18 68 0
61 62 63 11 -12 13 16 17 18 65 0
61 62 63 11 -12 13 16 17 -18 66 0
61 62 63 11 -12 13 16 -17 18 68 0
61 62 63 11 -12 13 16 -17 -18 68 0
61 62 63 11 -12 13 -16 17 18 68 0
61 62 63 11 -12 13 -16 17 -18 68 0
61 62 63 11 -12 13 -16 -17 18 68 0
61 62 63 11 -12 13 -16 -17 -18 68 0
61 62 63 11 -12 -13 16 17 18 65 0
61 62 63 11 -12 -13 16 17 -18 68 0
61 62 63 11 -12 -13 16 -17 18 68 0
61 62 63 11 -12 -13 16 -17 -18 68 0
61 62 63 11 -12 -13 -16 17 18 68 0
61 62 63 11 -12 -13 -16 17 -18 68 0
61 62 63 11 -12 -13 -16 -17 18 68 0
61 62 63 11 -12 -13 -16 -17 -18 68 0
61 62 63 -11 12 13 16 17 18 64 0
61 62 63 -11 12 13 16 17 -18 68 0
61 62 63 -11 12 13 16 -17 18 68 0
61 62 63 -11 12 13 16 -17 -18 68 0
61 62 63 -11 12 13 -16 17 18 68 0
61 62 63 -11 12 13 -16 17 -18 68 0
61 62 63 -11 12 13 -16 -17 18 68 0
61 62 63 -11 12 13 -16 -17 -18 68 0
61 62 63 -11 12 -13 16 17 18 64 0
61 62 63 -11 12 -13 16 17 -18 68 0
61 62 63 -11 12 -13 16 -17 18 68 0
61 62 63 -11 12 -13 16 -17 -18 68 0
61 62 63 -11 12 -13 -16 17 18 68 0
61 62 63 -11 12 -13 -16 17 -18 68 0
61 62 63 -11 12 -13 -16 -17 18 68 0
61 62 63 -11 12 -13 -16 -17 -18 68 0
61 62 63 -11 -12 13 16 17 18 69 0
61 62 63 -11 -12 13 16 17 -18 68 0
61 62 63 -11 -12 13 16 -17 18 68 0
61 62 63 -11 -12 13 16 -17 -18 68 0
61 62 63 -11 -12 13 -16 17 18 68 0
61 62 63 -11 -12 13 -16 17 -18 68 0
61 62 63 -11 -12 13 -16 -17 18 68 0
61 62 63 -11 -12 13 -16 -17 -18 68 0
61 62 63 -11 -12 -13 16 17 18 90 0
61 62 63 -11 -12 -13 16 17 -18 68 0
61 62 63 -11 -12 -13 16 -17 18 68 0
61 62 63 -11 -12 -13 16 -17 -18 68 0
61 62 63 -11 -12 -13 -16 17 18 68 0
61 62 63 -11 -12 -13 -16 17 -18 68 0
61 62 63 -11 -12 -13 -16 -17 18 68 0
61 62 63 -11 -12 -13 -16 -17 -18 68 0
61 62 -63 11 12 13 16 17 18 68 0
61 62 -63 11 12 13 16 17 -18 90 0
61 62 -63 11 12 13 16 -17 18 70 0
61 62 -63 11 12 13 16 -17 -18 71 0
61 62 -63 11 12 13 -16 17 18 68 0
61 62 -63 11 12 13 -16 17 -18 68 0
61 62 -63 11 12 13 -16 -17 18 68 0
61 62 -63 11 12 13 -16 -17 -18 68 0
61 62 -63 11 12 -13 16 17 18 68 0
61 62 -63 11 12 -13 16 17 -18 65 0
61 62 -63 11 12 -13 16 -17 18 72 0
61 62 -63 11 12 -13 16 -17 -18 68 0
61 62 -63 11 12 -13 -16 17 18 68 0
61 62 -63 11 12 -13 -16 17 -18 68 0
61 62 -63 11 12 -13 -16 -17 18 68 0
61 62 -63 11 12 -13 -16 -17 -18 68 0
61 62 -63 11 -12 13 16 17 18 68 0
61 62 -63 11 -12 13 16 17 -18 88 0
61 62 -63 11 -12 13 16 -17 18 90 0
61 62 -63 11 -12 13 16 -17 -18 68 0
61 62 -63 11 -12 13 -16 17 18 68 0
61 62 -63 11 -12 13 -16 17 -18 68 0
61 62 -63 11 -12 13 -16 -17 18 68 0
61 62 -63 11 -12 13 -16 -17 -18 68 0
61 62 -63 11 -12 -13 16 17 18 68 0
61 62 -63 11 -12 -13 16 17 -18 87 0
61 62 -63 11 -12 -13 16 -17 18 73 0
61 62 -63 11 -12 -13 16 -17 -18 68 0
61 62 -63 11 -12 -13 -16 17 18 68 0
61 62 -63 11 -12 -13 -16 17 -18 68 0
61 62 -63 11 -12 -13 -16 -17 18 68 0
61 62 -63 11 -12 -13 -16 -17 -18 68 0
61 62 -63 -11 12 13 16 17 18 90 0
61 62 -63 -11 12 13 16 17 -18 74 0
61 62 -63 -11 12 13 16 -17 18 81 0
61 62 -63 -11 12 13 16 -17 -18 68 0
61 62 -63 -11 12 13 -16 17 18 68 0
61 62 -63 -11 12 13 -16 17 -18 68 0
61 62 -63 -11 12 13 -16 -17 18 68 0
61 62 -63 -11 12 13 -16 -17 -18 68 0
61 62 -63 -11 12 -13 16 17 18 90 0
61 62 -63 -11 12 -13 16 17 -18 75 0
61 62 -63 -11 12 -13 16 -17 18 68 0
61 62 -63 -11 12 -13 16 -17 -18 68 0
61 62 -63 -11 12 -13 -16 17 18 68 0
61 62 -63 -11 12 -13 -16 17 -18 68 0
61 62 -63 -11 12 -13 -16 -17 18 68 0
61 62 -63 -11 12 -13 -16 -17 -18 68 0
61 62 -63 -11 -12 13 16 17 18 82 0
61 62 -63 -11 -12 13 16 17 -18 75 0
61 62 -63 -11 -12 13 16 -17 18 68 0
61 62 -63 -11 -12 13 16 -17 -18 68 0
61 62 -63 -11 -12 13 -16 17 18 68 0
61 62 -63 -11 -12 13 -16 17 -18 68 0
61 62 -63 -11 -12 13 -16 -17 18 68 0
61 62 -63 -11 -12 13 -16 -17 -18 68 0
61 62 -63 -11 -12 -13 16 17 18 64 0
61 62 -63 -11 -12 -13 16 17 -18 68 0
61 62 -63 -11 -12 -13 16 -17 18 68 0
61 62 -63 -11 -12 -13 16 -17 -18 68 0
61 62 -63 -11 -12 -13 -16 17 18 68 0
61 62 -63 -11 -12 -13 -16 17 -18 68 0
61 62 -63 -11 -12 -13 -16 -17 18 68 0
61 62 -63 -11 -12 -13 -16 -17 -18 68 0
61 -62 63 11 12 13 16 17 18 68 0
61 -62 63 11 12 13 16 17 -18 68 0
61 -62 63 11 12 13 16 -17 18 92 0
61 -62 63 11 12 13 16 -17 -18 75 0
61 -62 63 11 12 13 -16 17 18 101 0
61 -62 63 11 12 13 -16 17 -18 68 0
61 -62 63 11 12 13 -16 -17 18 68 0
61 -62 63 11 12 13 -16 -17 -18 68 0
61 -62 63 11 12 -13 16 17 18 68 0
61 -62 63 11 12 -13 16 17 -18 68 0
61 -62 63 11 12 -13 16 -17 18 97 0
61 -62 63 11 12 -13 16 -17 -18 86 0
61 -62 63 11 12 -13 -16 17 18 68 0
61 -62 63 11 12 -13 -16 17 -18 68 0
61 -62 63 11 12 -13 -16 -17 18 68 0
61 -62 63 11 12 -13 -16 -17 -18 68 0
61 -62 63 11 -12 13 16 17 18 68 0
61 -62 63 11 -12 13 16 17 -18 68 0
61 -62 63 11 -12 13 16 -17 18 64 0
61 -62 63 11 -12 13 16 -17 -18 75 0
61 -62 63 11 -12 13 -16 17 18 68 0
61 -62 63 11 -12 13 -16 17 -18 68 0
61 -62 63 11 -12 13 -16 -17 18 68 0
61 -62 63 11 -12 13 -16 -17 -18 68 0
61 -62 63 11 -12 -13 16 17 18 68 0
61 -62 63 11 -12 -13 16 17 -18 92 0
61 -62 63 11 -12 -13 16 -17 18 76 0
61 -62 63 11 -12 -13 16 -17 -18 73 0
61 -62 63 11 -12 -13 -16 17 18 68 0
61 -62 63 11 -12 -13 -16 17 -18 68 0
61 -62 63 11 -12 -13 -16 -17 18 68 0
61 -62 63 11 -12 -13 -16 -17 -18 68 0
61 -62 63 -11 12 13 16 17 18 68 0
61 -62 63 -11 12 13 16 17 -18 71 0
61 -62 63 -11 12 13 16 -17 18 72 0
61 -62 63 -11 12 13 16 -17 -18 91 0
61 -62 63 -11 12 13 -16 17 18 68 0
61 -62 63 -11 12 13 -16 17 -18 68 0
61 -62 63 -11 12 13 -16 -17 18 68 0
61 -62 63 -11 12 13 -16 -17 -18 68 0
61 -62 63 -11 12 -13 16 17 18 68 0
61 -62 63 -11 12 -13 16 17 -18 75 0
61 -62 63 -11 12 -13 16 -17 18 95 0
61 -62 63 -11 12 -13 16 -17 -18 68 0
61 -62 63 -11 12 -13 -16 17 18 68 0
61 -62 63 -11 12 -13 -16 17 -18 68 0
61 -62 63 -11 12 -13 -16 -17 18 68 0
61 -62 63 -11 12 -13 -16 -17 -18 68 0
61 -62 63 -11 -12 13 16 17 18 68 0
61 -62 63 -11 -12 13 16 17 -18 75 0
61 -62 63 -11 -12 13 16 -17 18 90 0
61 -62 63 -11 -12 13 16 -17 -18 68 0
61 -62 63 -11 -12 13 -16 17 18 68 0
61 -62 63 -11 -12 13 -16 17 -18 68 0
61 -62 63 -11 -12 13 -16 -17 18 68 0
61 -62 63 -11 -12 13 -16 -17 -18 68 0
61 -62 63 -11 -12 -13 16 17 18 68 0
61 -62 63 -11 -12 -13 16 17 -18 64 0
61 -62 63 -11 -12 -13 16 -17 18 68 0
61 -62 63 -11 -12 -13 16 -17 -18 68 0
61 -62 63 -11 -12 -13 -16 17 18 68 0
61 -62 63 -11 -12 -13 -16 17 -18 68 0
61 -62 63 -11 -12 -13 -16 -17 18 68 0
61 -62 63 -11 -12 -13 -16 -17 -18 68 0
61 -62 -63 11 12 13 16 17 18 68 0
61 -62 -63 11 12 13 16 17 -18 68 0
61 -62 -63 11 12 13 16 -17 18 68 0
61 -62 -63 11 12 13 16 -17 -18 71 0
61 -62 -63 11 12 13 -16 17 18 70 0
61 -62 -63 11 12 13 -16 17 -18 80 0
61 -62 -63 11 12 13 -16 -17 18 68 0
61 -62 -63 11 12 13 -16 -17 -18 68 0
61 -62 -63 11 12 -13 16 17 18 68 0
61 -62 -63 11 12 -13 16 17 -18 68 0
61 -62 -63 11 12 -13 16 -17 18 68 0
61 -62 -63 11 12 -13 16 -17 -18 95 0
61 -62 -63 11 12 -13 -16 17 18 97 0
61 -62 -63 11 12 -13 -16 17 -18 68 0
61 -62 -63 11 12 -13 -16 -17 18 68 0
61 -62 -63 11 12 -13 -16 -17 -18 68 0
61 -62 -63 11 -12 13 16 17 18 68 0
61 -62 -63 11 -12 13 16 17 -18 68 0
61 -62 -63 11 -12 13 16 -17 18 68 0
61 -62 -63 11 -12 13 16 -17 -18 75 0
61 -62 -63 11 -12 13 -16 17 18 90 0
61 -62 -63 11 -12 13 -16 17 -18 68 0
61 -62 -63 11 -12 13 -16 -17 18 68 0
61 -62 -63 11 -12 13 -16 -17 -18 68 0
61 -62 -63 11 -12 -13 16 17 18 68 0
61 -62 -63 11 -12 -13 16 17 -18 68 0
61 -62 -63 11 -12 -13 16 -17 18 68 0
61 -62 -63 11 -12 -13 16 -17 -18 76 0
61 -62 -63 11 -12 -13 -16 17 18 73 0
61 -62 -63 11 -12 -13 -16 17 -18 68 0
61 -62 -63 11 -12 -13 -16 -17 18 68 0
61 -62 -63 11 -12 -13 -16 -17 -18 68 0
61 -62 -63 -11 12 13 16 17 18 68 0
61 -62 -63 -11 12 13 16 17 -18 68 0
61 -62 -63 -11 12 13 16 -17 18 89 0
61 -62 -63 -11 12 13 16 -17 -18 75 0
61 -62 -63 -11 12 13 -16 17 18 68 0
61 -62 -63 -11 12 13 -16 17 -18 68 0
61 -62 -63 -11 12 13 -16 -17 18 68 0
61 -62 -63 -11 12 13 -16 -17 -18 68 0
61 -62 -63 -11 12 -13 16 17 18 68 0
61 -62 -63 -11 12 -13 16 17 -18 68 0
61 -62 -63 -11 12 -13 16 -17 18 86 0
61 -62 -63 -11 12 -13 16 -17 -18 99 0
61 -62 -63 -11 12 -13 -16 17 18 68 0
61 -62 -63 -11 12 -13 -16 17 -18 68 0
61 -62 -63 -11 12 -13 -16 -17 18 68 0
61 -62 -63 -11 12 -13 -16 -17 -18 68 0
61 -62 -63 -11 -12 13 16 17 18 68 0
61 -62 -63 -11 -12 13 16 17 -18 68 0
61 -62 -63 -11 -12 13 16 -17 18 64 0
61 -62 -63 -11 -12 13 16 -17 -18 72 0
61 -62 -63 -11 -12 13 -16 17 18 68 0
61 -62 -63 -11 -12 13 -16 17 -18 68 0
61 -62 -63 -11 -12 13 -16 -17 18 68 0
61 -62 -63 -11 -12 13 -16 -17 -18 68 0
61 -62 -63 -11 -12 -13 16 17 18 68 0
61 -62 -63 -11 -12 -13 16 17 -18 90 0
61 -62 -63 -11 -12 -13 16 -17 18 95 0
61 -62 -63 -11 -12 -13 16 -17 -18 68 0
61 -62 -63 -11 -12 -13 -16 17 18 68 0
61 -62 -63 -11 -12 -13 -16 17 -18 68 0
61 -62 -63 -11 -12 -13 -16 -17 18 68 0
61 -62 -63 -11 -12 -13 -16 -17 -18 68 0
-61 62 63 11 12 13 16 17 18 68 0
-61 62 63 11 12 13 16 17 -18 68 0
-61 62 63 11 12 13 16 -17 18 68 0
-61 62 63 11 12 13 16 -17 -18 68 0
-61 62 63 11 12 13 -16 17 18 68 0
-61 62 63 11 12 13 -16 17 -18 100 0
-61 62 63 11 12 13 -16 -17 18 92 0
-61 62 63 11 12 13 -16 -17 -18 68 0
-61 62 63 11 12 -13 16 17 18 68 0
-61 62 63 11 12 -13 16 17 -18 68 0
-61 62 63 11 12 -13 16 -17 18 68 0
-61 62 63 11 12 -13 16 -17 -18 68 0
-61 62 63 11 12 -13 -16 17 18 72 0
-61 62 63 11 12 -13 -16 17 -18 74 0
-61 62 63 11 12 -13 -16 -17 18 89 0
-61 62 63 11 12 -13 -16 -17 -18 68 0
-61 62 63 11 -12 13 16 17 18 68 0
-61 62 63 11 -12 13 16 17 -18 68 0
-61 62 63 11 -12 13 16 -17 18 68 0
-61 62 63 11 -12 13 16 -17 -18 68 0
-61 62 63 11 -12 13 -16 17 18 64 0
-61 62 63 11 -12 13 -16 17 -18 77 0
-61 62 63 11 -12 13 -16 -17 18 68 0
-61 62 63 11 -12 13 -16 -17 -18 68 0
-61 62 63 11 -12 -13 16 17 18 68 0
-61 62 63 11 -12 -13 16 17 -18 68 0
-61 62 63 11 -12 -13 16 -17 18 68 0
-61 62 63 11 -12 -13 16 -17 -18 68 0
-61 62 63 11 -12 -13 -16 17 18 76 0
-61 62 63 11 -12 -13 -16 17 -18 68 0
-61 62 63 11 -12 -13 -16 -17 18 68 0
-61 62 63 11 -12 -13 -16 -17 -18 68 0
-61 62 63 -11 12 13 16 17 18 68 0
-61 62 63 -11 12 13 16 17 -18 68 0
-61 62 63 -11 12 13 16 -17 18 68 0
-61 62 63 -11 12 13 16 -17 -18 100 0
-61 62 63 -11 12 13 -16 17 18 64 0
-61 62 63 -11 12 13 -16 17 -18 67 0
-61 62 63 -11 12 13 -16 -17 18 68 0
-61 62 63 -11 12 13 -16 -17 -18 68 0
-61 62 63 -11 12 -13 16 17 18 68 0
-61 62 63 -11 12 -13 16 17 -18 68 0
-61 62 63 -11 12 -13 16 -17 18 68 0
-61 62 63 -11 12 -13 16 -17 -18 91 0
-61 62 63 -11 12 -13 -16 17 18 93 0
-61 62 63 -11 12 -13 -16 17 -18 68 0
-61 62 63 -11 12 -13 -16 -17 18 68 0
-61 62 63 -11 12 -13 -16 -17 -18 68 0
-61 62 63 -11 -12 13 16 17 18 68 0
-61 62 63 -11 -12 13 16 17 -18 68 0
-61 62 63 -11 -12 13 16 -17 18 68 0
-61 62 63 -11 -12 13 16 -17 -18 97 0
-61 62 63 -11 -12 13 -16 17 18 86 0
-61 62 63 -11 -12 13 -16 17 -18 68 0
-61 62 63 -11 -12 13 -16 -17 18 68 0
-61 62 63 -11 -12 13 -16 -17 -18 68 0
-61 62 63 -11 -12 -13 16 17 18 68 0
-61 62 63 -11 -12 -13 16 17 -18 68 0
-61 62 63 -11 -12 -13 16 -17 18 86 0
-61 62 63 -11 -12 -13 16 -17 -18 72 0
-61 62 63 -11 -12 -13 -16 17 18 68 0
-61 62 63 -11 -12 -13 -16 17 -18 68 0
-61 62 63 -11 -12 -13 -16 -17 18 68 0
-61 62 63 -11 -12 -13 -16 -17 -18 68 0
-61 62 -63 11 12 13 16 17 18 68 0
-61 62 -63 11 12 13 16 17 -18 68 0
-61 62 -63 11 12 13 16 -17 18 68 0
-61 62 -63 11 12 13 16 -17 -18 68 0
-61 62 -63 11 12 13 -16 17 18 68 0
-61 62 -63 11 12 13 -16 17 -18 68 0
-61 62 -63 11 12 13 -16 -17 18 87 0
-61 62 -63 11 12 13 -16 -17 -18 73 0
-61 62 -63 11 12 -13 16 17 18 68 0
-61 62 -63 11 12 -13 16 17 -18 68 0
-61 62 -63 11 12 -13 16 -17 18 68 0
-61 62 -63 11 12 -13 16 -17 -18 68 0
-61 62 -63 11 12 -13 -16 17 18 68 0
-61 62 -63 11 12 -13 -16 17 -18 71 0
-61 62 -63 11 12 -13 -16 -17 18 79 0
-61 62 -63 11 12 -13 -16 -17 -18 68 0
-61 62 -63 11 -12 13 16 17 18 68 0
-61 62 -63 11 -12 13 16 17 -18 68 0
-61 62 -63 11 -12 13 16 -17 18 68 0
-61 62 -63 11 -12 13 16 -17 -18 68 0
-61 62 -63 11 -12 13 -16 17 18 68 0
-61 62 -63 11 -12 13 -16 17 -18 78 0
-61 62 -63 11 -12 13 -16 -17 18 92 0
-61 62 -63 11 -12 13 -16 -17 -18 68 0
-61 62 -63 11 -12 -13 16 17 18 68 0
-61 62 -63 11 -12 -13 16 17 -18 68 0
-61 62 -63 11 -12 -13 16 -17 18 68 0
-61 62 -63 11 -12 -13 16 -17 -18 68 0
-61 62 -63 11 -12 -13 -16 17 18 68 0
-61 62 -63 11 -12 -13 -16 17 -18 65 0
-61 62 -63 11 -12 -13 -16 -17 18 98 0
-61 62 -63 11 -12 -13 -16 -17 -18 68 0
-61 62 -63 -11 12 13 16 17 18 68 0
-61 62 -63 -11 12 13 16 17 -18 68 0
-61 62 -63 -11 12 13 16 -17 18 68 0
-61 62 -63 -11 12 13 16 -17 -18 68 0
-61 62 -63 -11 12 13 -16 17 18 90 0
-61 62 -63 -11 12 13 -16 17 -18 70 0
-61 62 -63 -11 12 13 -16 -17 18 68 0
-61 62 -63 -11 12 13 -16 -17 -18 68 0
-61 62 -63 -11 12 -13 16 17 18 68 0
-61 62 -63 -11 12 -13 16 17 -18 68 0
-61 62 -63 -11 12 -13 16 -17 18 68 0
-61 62 -63 -11 12 -13 16 -17 -18 68 0
-61 62 -63 -11 12 -13 -16 17 18 89 0
-61 62 -63 -11 12 -13 -16 17 -18 87 0
-61 62 -63 -11 12 -13 -16 -17 18 68 0
-61 62 -63 -11 12 -13 -16 -17 -18 68 0
-61 62 -63 -11 -12 13 16 17 18 68 0
-61 62 -63 -11 -12 13 16 17 -18 68 0
-61 62 -63 -11 -12 13 16 -17 18 68 0
-61 62 -63 -11 -12 13 16 -17 -18 68 0
-61 62 -63 -11 -12 13 -16 17 18 84 0
-61 62 -63 -11 -12 13 -16 17 -18 80 0
-61 62 -63 -11 -12 13 -16 -17 18 68 0
-61 62 -63 -11 -12 13 -16 -17 -18 68 0
-61 62 -63 -11 -12 -13 16 17 18 68 0
-61 62 -63 -11 -12 -13 16 17 -18 68 0
-61 62 -63 -11 -12 -13 16 -17 18 68 0
-61 62 -63 -11 -12 -13 16 -17 -18 97 0
-61 62 -63 -11 -12 -13 -16 17 18 84 0
-61 62 -63 -11 -12 -13 -16 17 -18 68 0
-61 62 -63 -11 -12 -13 -16 -17 18 68 0
-61 62 -63 -11 -12 -13 -16 -17 -18 68 0
-61 -62 63 11 12 13 16 17 18 68 0
-61 -62 63 11 12 13 16 17 -18 68 0
-61 -62 63 11 12 13 16 -17 18 68 0
-61 -62 63 11 12 13 16 -17 -18 68 0
-61 -62 63 11 12 13 -16 17 18 68 0
-61 -62 63 11 12 13 -16 17 -18 68 0
-61 -62 63 11 12 13 -16 -17 18 68 0
-61 -62 63 11 12 13 -16 -17 -18 77 0
-61 -62 63 11 12 -13 16 17 18 68 0
-61 -62 63 11 12 -13 16 17 -18 68 0
-61 -62 63 11 12 -13 16 -17 18 68 0
-61 -62 63 11 12 -13 16 -17 -18 68 0
-61 -62 63 11 12 -13 -16 17 18 68 0
-61 -62 63 11 12 -13 -16 17 -18 68 0
-61 -62 63 11 12 -13 -16 -17 18 89 0
-61 -62 63 11 12 -13 -16 -17 -18 102 0
-61 -62 63 11 -12 13 16 17 18 68 0
-61 -62 63 11 -12 13 16 17 -18 68 0
-61 -62 63 11 -12 13 16 -17 18 68 0
-61 -62 63 11 -12 13 16 -17 -18 68 0
-61 -62 63 11 -12 13 -16 17 18 68 0
-61 -62 63 11 -12 13 -16 17 -18 68 0
-61 -62 63 11 -12 13 -16 -17 18 87 0
-61 -62 63 11 -12 13 -16 -17 -18 86 0
-61 -62 63 11 -12 -13 16 17 18 68 0
-61 -62 63 11 -12 -13 16 17 -18 68 0
-61 -62 63 11 -12 -13 16 -17 18 68 0
-61 -62 63 11 -12 -13 16 -17 -18 68 0
-61 -62 63 11 -12 -13 -16 17 18 68 0
-61 -62 63 11 -12 -13 -16 17 -18 68 0
-61 -62 63 11 -12 -13 -16 -17 18 83 0
-61 -62 63 11 -12 -13 -16 -17 -18 77 0
-61 -62 63 -11 12 13 16 17 18 68 0
-61 -62 63 -11 12 13 16 17 -18 68 0
-61 -62 63 -11 12 13 16 -17 18 68 0
-61 -62 63 -11 12 13 16 -17 -18 68 0
-61 -62 63 -11 12 13 -16 17 18 68 0
-61 -62 63 -11 12 13 -16 17 -18 92 0
-61 -62 63 -11 12 13 -16 -17 18 64 0
-61 -62 63 -11 12 13 -16 -17 -18 73 0
-61 -62 63 -11 12 -13 16 17 18 68 0
-61 -62 63 -11 12 -13 16 17 -18 68 0
-61 -62 63 -11 12 -13 16 -17 18 68 0
-61 -62 63 -11 12 -13 16 -17 -18 68 0
-61 -62 63 -11 12 -13 -16 17 18 68 0
-61 -62 63 -11 12 -13 -16 17 -18 92 0
-61 -62 63 -11 12 -13 -16 -17 18 95 0
-61 -62 63 -11 12 -13 -16 -17 -18 68 0
-61 -62 63 -11 -12 13 16 17 18 68 0
-61 -62 63 -11 -12 13 16 17 -18 68 0
-61 -62 63 -11 -12 13 16 -17 18 68 0
-61 -62 63 -11 -12 13 16 -17 -18 68 0
-61 -62 63 -11 -12 13 -16 17 18 91 0
-61 -62 63 -11 -12 13 -16 17 -18 100 0
-61 -62 63 -11 -12 13 -16 -17 18 86 0
-61 -62 63 -11 -12 13 -16 -17 -18 68 0
-61 -62 63 -11 -12 -13 16 17 18 68 0
-61 -62 63 -11 -12 -13 16 17 -18 68 0
-61 -62 63 -11 -12 -13 16 -17 18 68 0
-61 -62 63 -11 -12 -13 16 -17 -18 68 0
-61 -62 63 -11 -12 -13 -16 17 18 94 0
-61 -62 63 -11 -12 -13 -16 17 -18 85 0
-61 -62 63 -11 -12 -13 -16 -17 18 90 0
-61 -62 63 -11 -12 -13 -16 -17 -18 68 0
-61 -62 -63 11 12 13 16 17 18 68 0
-61 -62 -63 11 12 13 16 17 -18 68 0
-61 -62 -63 11 12 13 16 -17 18 68 0
-61 -62 -63 11 12 13 16 -17 -18 68 0
-61 -62 -63 11 12 13 -16 17 18 68 0
-61 -62 -63 11 12 13 -16 17 -18 68 0
-61 -62 -63 11 12 13 -16 -17 18 68 0
-61 -62 -63 11 12 13 -16 -17 -18 75 0
-61 -62 -63 11 12 -13 16 17 18 68 0
-61 -62 -63 11 12 -13 16 17 -18 68 0
-61 -62 -63 11 12 -13 16 -17 18 68 0
-61 -62 -63 11 12 -13 16 -17 -18 68 0
-61 -62 -63 11 12 -13 -16 17 18 68 0
-61 -62 -63 11 12 -13 -16 17 -18 68 0
-61 -62 -63 11 12 -13 -16 -17 18 68 0
-61 -62 -63 11 12 -13 -16 -17 -18 79 0
-61 -62 -63 11 -12 13 16 17 18 68 0
-61 -62 -63 11 -12 13 16 17 -18 68 0
-61 -62 -63 11 -12 13 16 -17 18 68 0
-61 -62 -63 11 -12 13 16 -17 -18 68 0
-61 -62 -63 11 -12 13 -16 17 18 68 0
-61 -62 -63 11 -12 13 -16 17 -18 68 0
-61 -62 -63 11 -12 13 -16 -17 18 68 0
-61 -62 -63 11 -12 13 -16 -17 -18 95 0
-61 -62 -63 11 -12 -13 16 17 18 68 0
-61 -62 -63 11 -12 -13 16 17 -18 68 0
-61 -62 -63 11 -12 -13 16 -17 18 68 0
-61 -62 -63 11 -12 -13 16 -17 -18 68 0
-61 -62 -63 11 -12 -13 -16 17 18 68 0
-61 -62 -63 11 -12 -13 -16 17 -18 68 0
-61 -62 -63 11 -12 -13 -16 -17 18 68 0
-61 -62 -63 11 -12 -13 -16 -17 -18 78 0
-61 -62 -63 -11 12 13 16 17 18 68 0
-61 -62 -63 -11 12 13 16 17 -18 68 0
-61 -62 -63 -11 12 13 16 -17 18 68 0
-61 -62 -63 -11 12 13 16 -17 -18 68 0
-61 -62 -63 -11 12 13 -16 17 18 68 0
-61 -62 -63 -11 12 13 -16 17 -18 68 0
-61 -62 -63 -11 12 13 -16 -17 18 90 0
-61 -62 -63 -11 12 13 -16 -17 -18 76 0
-61 -62 -63 -11 12 -13 16 17 18 68 0
-61 -62 -63 -11 12 -13 16 17 -18 68 0
-61 -62 -63 -11 12 -13 16 -17 18 68 0
-61 -62 -63 -11 12 -13 16 -17 -18 68 0
-61 -62 -63 -11 12 -13 -16 17 18 68 0
-61 -62 -63 -11 12 -13 -16 17 -18 68 0
-61 -62 -63 -11 12 -13 -16 -17 18 86 0
-61 -62 -63 -11 12 -13 -16 -17 -18 65 0
-61 -62 -63 -11 -12 13 16 17 18 68 0
-61 -62 -63 -11 -12 13 16 17 -18 68 0
-61 -62 -63 -11 -12 13 16 -17 18 68 0
-61 -62 -63 -11 -12 13 16 -17 -18 68 0
-61 -62 -63 -11 -12 13 -16 17 18 68 0
-61 -62 -63 -11 -12 13 -16 17 -18 68 0
-61 -62 -63 -11 -12 13 -16 -17 18 95 0
-61 -62 -63 -11 -12 13 -16 -17 -18 65 0
-61 -62 -63 -11 -12 -13 16 17 18 68 0
-61 -62 -63 -11 -12 -13 16 17 -18 68 0
-61 -62 -63 -11 -12 -13 16 -17 18 68 0
-61 -62 -63 -11 -12 -13 16 -17 -18 68 0
-61 -62 -63 -11 -12 -13 -16 17 18 68 0
-61 -62 -63 -11 -12 -13 -16 17 -18 96 0
-61 -62 -63 -11 -12 -13 -16 -17 18 64 0
-61 -62 -63 -11 -12 -13 -16 -17 -18 65 0
